17	4
12	14	10	12	
0	0	0	0	0	3	2	3	4	
7	4	2	0	0	2	17	17	
1	0	0	1	0	3	5	6	14	
7	0	0	7	0	3	12	14	17	
8	0	0	0	10	3	7	8	13	
125	0	0	9	0	3	9	10	17	
75	2	0	0	0	3	11	15	17	
100	7	9	0	8	3	15	17	17	
100	8	0	2	8	3	13	17	17	
250	0	9	0	0	3	13	15	17	
175	1	0	0	3	3	12	16	17	
125	0	9	5	0	3	17	17	17	
5	0	0	0	1	3	17	17	17	
8	0	0	0	3	3	17	17	17	
6	0	8	1	8	3	16	17	17	
8	4	0	0	2	1	17	
0	0	0	0	0	0	
